set I := 0 1 2 3 4 5 6 7 8 9 10 11 12 13 14 15 16 17 18 19 20 21 22 23 24 25 26 27 28 29 30 31 32 33 34;

param cap := 150;

param: size:=
    0 100
    1 98
    2 96
    3 92
    4 91
    5 89
    6 87
    7 84
    8 82
    9 79
    10 78
    11 76
    12 74
    13 69
    14 67
    15 65
    16 63
    17 62
    18 59
    19 58
    20 56
    21 54
    22 52
    23 50
    24 46
    25 44
    26 41
    27 39
    28 37
    29 35
    30 33
    31 30
    32 27
    33 24
    34 22;
